(set-option :produce-models true)
(set-logic QF_LRA)
(set-info :notes | Strip-packing problem.|)
(declare-fun x0 () Real)
(declare-fun y0 () Real)
(declare-fun x1 () Real)
(declare-fun y1 () Real)
(declare-fun x2 () Real)
(declare-fun y2 () Real)
(declare-fun x3 () Real)
(declare-fun y3 () Real)
(declare-fun x4 () Real)
(declare-fun y4 () Real)
(declare-fun x5 () Real)
(declare-fun y5 () Real)
(declare-fun x6 () Real)
(declare-fun y6 () Real)
(declare-fun x7 () Real)
(declare-fun y7 () Real)
(declare-fun x8 () Real)
(declare-fun y8 () Real)
(declare-fun z () Real)
(declare-fun c () Real)
(assert (and (= c z) (and (>= x0 0) 
(and (>= y0 0) 
(and (>= x1 0) 
(and (>= y1 0) 
(and (>= x2 0) 
(and (>= y2 0) 
(and (>= x3 0) 
(and (>= y3 0) 
(and (>= x4 0) 
(and (>= y4 0) 
(and (>= x5 0) 
(and (>= y5 0) 
(and (>= x6 0) 
(and (>= y6 0) 
(and (>= x7 0) 
(and (>= y7 0) 
(and (>= x8 0) 
(and (>= y8 0) 
(and (>= z 0) 
(and (>= c 0) 
(and (<= (+ x0 0.5693032137) z) 
(and (<= 0.9946107441 y0) 
(and (<= y0 1.0) 
(and (<= x0 (- 3.8620194702 0.5693032137)) 
(and (>= x0 0) 
(and (<= (+ x1 0.8079232706) z) 
(and (<= 0.5387788581 y1) 
(and (<= y1 1.0) 
(and (<= x1 (- 3.8620194702 0.8079232706)) 
(and (>= x1 0) 
(and (<= (+ x2 0.3987046214) z) 
(and (<= 0.5340624257 y2) 
(and (<= y2 1.0) 
(and (<= x2 (- 3.8620194702 0.3987046214)) 
(and (>= x2 0) 
(and (<= (+ x3 0.8004112936) z) 
(and (<= 0.3849473982 y3) 
(and (<= y3 1.0) 
(and (<= x3 (- 3.8620194702 0.8004112936)) 
(and (>= x3 0) 
(and (<= (+ x4 0.4177817388) z) 
(and (<= 0.3187779235 y4) 
(and (<= y4 1.0) 
(and (<= x4 (- 3.8620194702 0.4177817388)) 
(and (>= x4 0) 
(and (<= (+ x5 0.7754169496) z) 
(and (<= 0.3159323217 y5) 
(and (<= y5 1.0) 
(and (<= x5 (- 3.8620194702 0.7754169496)) 
(and (>= x5 0) 
(and (<= (+ x6 0.4636189725) z) 
(and (<= 0.1537072171 y6) 
(and (<= y6 1.0) 
(and (<= x6 (- 3.8620194702 0.4636189725)) 
(and (>= x6 0) 
(and (<= (+ x7 0.8928896761) z) 
(and (<= 0.0948221092 y7) 
(and (<= y7 1.0) 
(and (<= x7 (- 3.8620194702 0.8928896761)) 
(and (>= x7 0) 
(and (<= (+ x8 0.2287630152) z) 
(and (<= 0.0920997534 y8) 
(and (<= y8 1.0) 
(and (<= x8 (- 3.8620194702 0.2287630152)) 
(and (>= x8 0) 
(and (<= c 3.8620194702) 
(and (or (<= (+ x0 0.5693032137) x1) (or (<= (+ x1 0.8079232706) x0) (or (>= (- y0 0.9946107441) y1) (or (>= (- y1 0.5387788581) y0))))) 
(and (or (<= (+ x0 0.5693032137) x2) (or (<= (+ x2 0.3987046214) x0) (or (>= (- y0 0.9946107441) y2) (or (>= (- y2 0.5340624257) y0))))) 
(and (or (<= (+ x0 0.5693032137) x3) (or (<= (+ x3 0.8004112936) x0) (or (>= (- y0 0.9946107441) y3) (or (>= (- y3 0.3849473982) y0))))) 
(and (or (<= (+ x0 0.5693032137) x4) (or (<= (+ x4 0.4177817388) x0) (or (>= (- y0 0.9946107441) y4) (or (>= (- y4 0.3187779235) y0))))) 
(and (or (<= (+ x0 0.5693032137) x5) (or (<= (+ x5 0.7754169496) x0) (or (>= (- y0 0.9946107441) y5) (or (>= (- y5 0.3159323217) y0))))) 
(and (or (<= (+ x0 0.5693032137) x6) (or (<= (+ x6 0.4636189725) x0) (or (>= (- y0 0.9946107441) y6) (or (>= (- y6 0.1537072171) y0))))) 
(and (or (<= (+ x0 0.5693032137) x7) (or (<= (+ x7 0.8928896761) x0) (or (>= (- y0 0.9946107441) y7) (or (>= (- y7 0.0948221092) y0))))) 
(and (or (<= (+ x0 0.5693032137) x8) (or (<= (+ x8 0.2287630152) x0) (or (>= (- y0 0.9946107441) y8) (or (>= (- y8 0.0920997534) y0))))) 
(and (or (<= (+ x1 0.8079232706) x2) (or (<= (+ x2 0.3987046214) x1) (or (>= (- y1 0.5387788581) y2) (or (>= (- y2 0.5340624257) y1))))) 
(and (or (<= (+ x1 0.8079232706) x3) (or (<= (+ x3 0.8004112936) x1) (or (>= (- y1 0.5387788581) y3) (or (>= (- y3 0.3849473982) y1))))) 
(and (or (<= (+ x1 0.8079232706) x4) (or (<= (+ x4 0.4177817388) x1) (or (>= (- y1 0.5387788581) y4) (or (>= (- y4 0.3187779235) y1))))) 
(and (or (<= (+ x1 0.8079232706) x5) (or (<= (+ x5 0.7754169496) x1) (or (>= (- y1 0.5387788581) y5) (or (>= (- y5 0.3159323217) y1))))) 
(and (or (<= (+ x1 0.8079232706) x6) (or (<= (+ x6 0.4636189725) x1) (or (>= (- y1 0.5387788581) y6) (or (>= (- y6 0.1537072171) y1))))) 
(and (or (<= (+ x1 0.8079232706) x7) (or (<= (+ x7 0.8928896761) x1) (or (>= (- y1 0.5387788581) y7) (or (>= (- y7 0.0948221092) y1))))) 
(and (or (<= (+ x1 0.8079232706) x8) (or (<= (+ x8 0.2287630152) x1) (or (>= (- y1 0.5387788581) y8) (or (>= (- y8 0.0920997534) y1))))) 
(and (or (<= (+ x2 0.3987046214) x3) (or (<= (+ x3 0.8004112936) x2) (or (>= (- y2 0.5340624257) y3) (or (>= (- y3 0.3849473982) y2))))) 
(and (or (<= (+ x2 0.3987046214) x4) (or (<= (+ x4 0.4177817388) x2) (or (>= (- y2 0.5340624257) y4) (or (>= (- y4 0.3187779235) y2))))) 
(and (or (<= (+ x2 0.3987046214) x5) (or (<= (+ x5 0.7754169496) x2) (or (>= (- y2 0.5340624257) y5) (or (>= (- y5 0.3159323217) y2))))) 
(and (or (<= (+ x2 0.3987046214) x6) (or (<= (+ x6 0.4636189725) x2) (or (>= (- y2 0.5340624257) y6) (or (>= (- y6 0.1537072171) y2))))) 
(and (or (<= (+ x2 0.3987046214) x7) (or (<= (+ x7 0.8928896761) x2) (or (>= (- y2 0.5340624257) y7) (or (>= (- y7 0.0948221092) y2))))) 
(and (or (<= (+ x2 0.3987046214) x8) (or (<= (+ x8 0.2287630152) x2) (or (>= (- y2 0.5340624257) y8) (or (>= (- y8 0.0920997534) y2))))) 
(and (or (<= (+ x3 0.8004112936) x4) (or (<= (+ x4 0.4177817388) x3) (or (>= (- y3 0.3849473982) y4) (or (>= (- y4 0.3187779235) y3))))) 
(and (or (<= (+ x3 0.8004112936) x5) (or (<= (+ x5 0.7754169496) x3) (or (>= (- y3 0.3849473982) y5) (or (>= (- y5 0.3159323217) y3))))) 
(and (or (<= (+ x3 0.8004112936) x6) (or (<= (+ x6 0.4636189725) x3) (or (>= (- y3 0.3849473982) y6) (or (>= (- y6 0.1537072171) y3))))) 
(and (or (<= (+ x3 0.8004112936) x7) (or (<= (+ x7 0.8928896761) x3) (or (>= (- y3 0.3849473982) y7) (or (>= (- y7 0.0948221092) y3))))) 
(and (or (<= (+ x3 0.8004112936) x8) (or (<= (+ x8 0.2287630152) x3) (or (>= (- y3 0.3849473982) y8) (or (>= (- y8 0.0920997534) y3))))) 
(and (or (<= (+ x4 0.4177817388) x5) (or (<= (+ x5 0.7754169496) x4) (or (>= (- y4 0.3187779235) y5) (or (>= (- y5 0.3159323217) y4))))) 
(and (or (<= (+ x4 0.4177817388) x6) (or (<= (+ x6 0.4636189725) x4) (or (>= (- y4 0.3187779235) y6) (or (>= (- y6 0.1537072171) y4))))) 
(and (or (<= (+ x4 0.4177817388) x7) (or (<= (+ x7 0.8928896761) x4) (or (>= (- y4 0.3187779235) y7) (or (>= (- y7 0.0948221092) y4))))) 
(and (or (<= (+ x4 0.4177817388) x8) (or (<= (+ x8 0.2287630152) x4) (or (>= (- y4 0.3187779235) y8) (or (>= (- y8 0.0920997534) y4))))) 
(and (or (<= (+ x5 0.7754169496) x6) (or (<= (+ x6 0.4636189725) x5) (or (>= (- y5 0.3159323217) y6) (or (>= (- y6 0.1537072171) y5))))) 
(and (or (<= (+ x5 0.7754169496) x7) (or (<= (+ x7 0.8928896761) x5) (or (>= (- y5 0.3159323217) y7) (or (>= (- y7 0.0948221092) y5))))) 
(and (or (<= (+ x5 0.7754169496) x8) (or (<= (+ x8 0.2287630152) x5) (or (>= (- y5 0.3159323217) y8) (or (>= (- y8 0.0920997534) y5))))) 
(and (or (<= (+ x6 0.4636189725) x7) (or (<= (+ x7 0.8928896761) x6) (or (>= (- y6 0.1537072171) y7) (or (>= (- y7 0.0948221092) y6))))) 
(and (or (<= (+ x6 0.4636189725) x8) (or (<= (+ x8 0.2287630152) x6) (or (>= (- y6 0.1537072171) y8) (or (>= (- y8 0.0920997534) y6))))) 
(and (or (<= (+ x7 0.8928896761) x8) (or (<= (+ x8 0.2287630152) x7) (or (>= (- y7 0.0948221092) y8) (or (>= (- y8 0.0920997534) y7))))) ))))))))))))))))))))))))))))))))))))))))))))))))))))))))))))))))))))))))))))))))))))))))))))))))))))))))
(minimize c)
(check-sat)
(get-objectives)
(exit)
